401
Whewellite crystallite seed 11 R=10.0 A
C     30.293833    21.306678   -18.561903
C     28.064321    28.168597   -18.146961
C     30.137712    26.552375   -13.160740
C     30.405347    25.515594   -14.264426
O     29.851679    21.491860   -17.399590
O     30.814923    20.250016   -18.999431
O     28.946831    26.917954   -13.030817
O     29.405972    25.100728   -14.901462
O     31.393887    24.153574   -16.880487
O     31.365760    23.583785   -16.423438
C     25.966664    26.920805   -11.344518
O     25.524509    27.105986   -10.182205
O     26.487754    25.864143   -11.782046
C     30.461864    16.816214   -15.000420
C     28.272158    21.229633   -12.657019
C     28.250554    16.713201    -9.124593
C     30.658250    19.947213    -9.773272
C     32.508953    21.004553   -14.504330
C     30.394785    20.771558    -8.501373
Ca    31.319981    18.032406   -18.088558
Ca    29.203208    17.959659   -12.211814
Ca    29.539907    20.098928   -15.445801
Ca    27.424112    20.010128    -9.555517
O     30.977925    16.632607   -16.128317
O     28.802189    20.186655   -13.108069
O     27.793910    17.790836    -8.663383
O     29.994703    17.879348   -14.541240
O     27.819236    21.416900   -11.507999
O     28.757188    16.545761   -10.262480
O     31.786687    19.530186   -16.235302
O     29.670514    19.420519   -10.329480
O     31.316159    21.324570   -14.322307
O     29.205911    20.850417    -8.129412
O     31.519704    22.366130   -11.888817
O     31.593605    18.005917   -12.032709
O     29.379812    23.858075   -10.821569
O     31.547831    22.935919   -12.345866
O     31.625489    17.734751   -11.763458
O     29.402681    24.184266   -11.023704
C     26.134695    22.430341    -7.783035
C     28.448709    25.581456    -8.391179
Ca    26.992812    23.646532   -10.871173
Ca    24.876039    23.573785    -4.994429
Ca    25.212738    25.713055    -8.228416
O     26.650755    22.246733    -8.910932
O     24.475020    25.800782    -5.890684
O     25.667534    23.493475    -7.323855
O     27.459518    25.144313    -9.017917
C     30.177621    22.503538   -19.558111
C     27.987915    26.916958   -17.214711
C     25.830021    18.520146   -22.007729
C     23.600509    25.382064   -21.592788
C     25.673900    23.765842   -16.606566
C     25.941535    22.729062   -17.710253
Ca    27.129798    25.700766   -14.126572
Ca    28.909872    23.634244   -16.769330
O     29.647590    23.546516   -19.107062
O     27.471854    27.100565   -16.086813
O     25.387867    18.705327   -20.845416
O     23.143865    26.459699   -21.131578
O     28.455076    25.853824   -17.673890
O     26.351111    17.463484   -22.445258
O     24.107143    25.214624   -22.730674
O     26.606305    23.803548   -22.037855
O     24.483019    24.131422   -16.476643
O     26.663092    24.202986   -15.979829
O     24.942160    22.314195   -18.347288
O     27.133620    22.408602   -17.892824
O     26.930075    21.367042   -20.326314
O     24.730765    26.371181   -18.448168
O     29.069263    19.875529   -21.392999
O     26.856174    25.727255   -20.182421
O     26.901948    20.797253   -19.869265
O     24.683980    26.949051   -18.895027
O     29.047098    19.548906   -21.191426
C     25.850452    28.117665   -12.340726
C     21.502852    24.134272   -14.790344
C     23.464360    29.400085   -15.224473
C     21.346731    29.379969    -9.389181
C     23.728534    28.576184   -16.495825
C     21.614366    28.343189   -10.492868
Ca    26.699208    29.337613   -15.441681
Ca    24.582703    29.248370    -9.551945
O     25.320421    29.160643   -11.889677
O     21.060697    24.319454   -13.628031
O     26.303374    27.930398   -13.489746
O     22.023942    23.077611   -15.227873
O     22.279136    29.417675   -14.820470
O     24.452096    29.926779   -14.668266
O     22.731240    28.033276   -17.032014
O     20.614990    27.928322   -11.129903
O     24.916699    28.496882   -16.868334
O     22.806451    28.022728   -10.675439
O     22.602906    26.981169   -13.108929
O     24.742094    25.489655   -14.175614
O     22.574779    26.411379   -12.651880
O     24.719929    25.163033   -13.974042
C     25.998052    14.029682   -18.446246
C     28.174148    15.461563    -8.192342
C     23.808346    18.443101   -16.102846
C     30.385458    15.564575   -14.068169
C     23.786742    13.926669   -12.570420
C     28.155946    22.426494   -13.653228
C     28.312067    17.180797   -19.054391
C     26.194438    17.160681   -13.219099
C     28.045141    18.218020   -17.950157
C     25.930973    17.985025   -11.947200
Ca    24.739396    15.173126   -15.657641
Ca    25.076095    17.312396   -18.891627
Ca    22.960300    17.223596   -13.001343
O     26.514113    13.846075   -19.574144
O     24.338377    17.400123   -16.553895
O     23.330098    15.004303   -12.109210
O     28.598100    22.241312   -14.815541
O     25.530891    15.092816   -17.987067
O     23.355424    18.630368   -14.953826
O     29.878824    15.732016   -12.930283
O     24.293376    13.759228   -13.708306
O     27.634856    23.483156   -13.215699
O     29.502948    16.815218   -19.184314
O     26.792539    12.348153   -13.015487
O     27.379662    17.143091   -13.623102
O     27.322875    16.743654   -19.681129
O     25.206702    16.633987   -13.775306
O     29.043807    18.632444   -17.313669
O     26.927558    18.527491   -11.411559
O     26.852347    18.538038   -17.768133
O     24.742099    18.063885   -11.575238
O     29.255202    14.575459   -17.212789
O     24.916999    14.915785    -9.425800
O     27.055892    19.579598   -15.334643
O     27.129793    15.219385   -15.478536
O     27.042407    14.271860   -11.160053
O     24.916000    21.071543   -14.267395
O     29.301987    13.997588   -16.765930
O     24.870214    15.493656    -9.872659
O     27.084019    20.149387   -15.791692
O     27.161677    14.948218   -15.209285
O     27.010524    14.543026   -11.429304
O     24.938869    21.397733   -14.469531
C     21.670883    19.643809   -11.228862
C     19.481177    24.057228    -8.885461
C     26.058289    21.178702    -6.850784
C     19.459573    19.540796    -5.353035
C     23.984897    22.794924   -11.837006
C     23.650594    17.944690    -6.202105
C     21.867268    22.774808    -6.001714
C     23.717972    23.832147   -10.732772
C     23.914768    17.120789    -7.473456
C     21.603804    23.599152    -4.729815
Ca    22.529000    20.860000   -14.317000
Ca    20.412227    20.787253    -8.440256
Ca    20.748926    22.926523   -11.674243
Ca    26.885441    17.882218    -6.419313
Ca    18.633130    22.837723    -5.783958
O     22.186943    19.460201   -12.356759
O     20.011208    23.014250    -9.336510
O     26.514938    20.101943    -7.310884
O     24.270931    27.855439    -7.598156
O     21.203722    20.706942   -10.769682
O     19.028255    24.244495    -7.736441
O     25.551655    21.346143    -5.712898
O     19.966207    19.373355    -6.490921
O     25.175779    22.429344   -11.966929
O     22.465369    17.962280    -5.798102
O     23.052493    22.757218    -6.405717
O     22.995706    22.357781   -12.463744
O     24.638330    18.471384    -5.645898
O     20.879532    22.248114    -6.557921
O     24.716638    24.246571   -10.096284
O     22.917474    16.577881    -8.009645
O     22.525178    24.152164   -10.550748
O     25.102932    17.041486    -7.845966
O     24.928032    20.189586    -9.995404
O     22.728723    25.193724    -8.117259
O     22.802624    20.833511    -8.261151
O     20.588830    26.685670    -7.050010
O     24.974817    19.611715    -9.548545
O     22.756850    25.763514    -8.574307
O     22.834507    20.562345    -7.991900
O     20.611700    27.011860    -7.252146
C     25.713809    19.717006   -23.003938
C     23.524103    24.130426   -20.660537
C     21.210088    20.979310   -20.052393
C     21.477723    19.942530   -21.156079
Ca    24.782759    22.986981   -23.449143
Ca    22.665986    22.914234   -17.572399
Ca    24.446060    20.847711   -20.215156
O     25.183778    20.759984   -22.552888
O     23.008042    24.314033   -19.532640
O     23.991264    23.067292   -21.119717
O     20.019207    21.344890   -19.922470
O     22.199280    21.416453   -19.425655
O     20.478348    19.527663   -21.793115
O     22.669808    19.622070   -21.338650
O     22.466263    18.580510   -23.772140
O     20.266953    23.584648   -21.893995
O     22.392362    22.940723   -23.628248
O     22.438136    18.010720   -23.315091
O     20.220168    24.162519   -22.340853
O     22.360478    23.211889   -23.897499
C     21.386640    25.331133   -15.786553
C     19.196933    29.744552   -13.443152
C     17.039040    21.347740   -18.236171
C     19.000548    26.613553   -18.670300
C     16.882919    26.593437   -12.835008
C     19.264722    25.789652   -19.941651
C     17.150554    25.556657   -13.938694
Ca    20.455590    28.601108   -16.231758
Ca    18.338817    28.528361   -10.355014
Ca    22.235396    26.551081   -18.887508
Ca    20.118891    26.461838   -12.997771
O     20.856609    26.374111   -15.335504
O     21.864893    28.770806   -19.779078
O     16.596885    21.532922   -17.073858
O     21.839562    25.143866   -16.935573
O     19.664095    28.681418   -13.902332
O     17.560130    20.291078   -18.673699
O     17.815324    26.631143   -18.266296
O     15.692037    26.959016   -12.705085
O     19.988284    27.140247   -18.114093
O     17.872111    27.030580   -12.208270
O     18.267428    25.246743   -20.477840
O     16.151178    25.141790   -14.575730
O     20.452887    25.710349   -20.314161
O     18.342639    25.236196   -14.121266
O     18.139094    24.194637   -16.554755
O     20.278282    22.703123   -17.621441
O     18.065192    28.554849   -16.410863
O     18.110967    23.624847   -16.097706
O     20.256117    22.376501   -17.419868
O     18.033309    28.826016   -16.680114
C     23.710336    12.675030   -11.638169
C     19.344534    15.656569   -19.548672
C     25.921646    12.778043   -17.513996
C     23.692134    19.639962   -17.099054
C     21.730626    14.374149   -16.664926
C     23.581329    15.431488   -21.395983
C     21.467161    15.198493   -15.393026
Ca    24.968993    11.531586   -14.426775
Ca    20.275584    12.386594   -19.103467
Ca    18.496488    14.437064   -16.447170
O     23.194276    12.858638   -10.510272
O     19.874565    14.613591   -19.999722
O     18.866286    12.217771   -15.555036
O     24.134288    19.454780   -18.261368
O     24.177498    11.611897   -12.097349
O     18.891612    15.843836   -18.399652
O     25.415012    12.945484   -16.376109
O     23.171044    20.696623   -16.661526
O     22.915850    14.356559   -17.068929
O     20.742890    13.847455   -17.221133
O     24.579995    15.845912   -20.759495
O     22.463746    15.740958   -14.857385
O     22.388535    15.751506   -21.213960
O     20.278287    15.277353   -15.021065
O     20.453187    12.129253   -12.871627
O     22.592080    16.793065   -18.780470
O     22.665981    12.432853   -18.924363
O     22.578595    11.485327   -14.605879
O     20.452188    18.285011   -17.713222
O     20.406402    12.707124   -13.318485
O     22.620207    17.362855   -19.237519
O     22.697865    12.161686   -18.655111
O     22.546712    11.756494   -14.875131
O     20.475057    18.611201   -17.915357
C     17.207071    16.857276   -14.674688
C     15.017365    21.270696   -12.331287
C     21.594477    18.392170   -10.296611
C     19.364965    25.254088    -9.881669
C     19.521085    20.008392   -15.282832
C     19.186782    15.158158    -9.647932
C     17.403456    19.988275    -9.447541
C     19.254160    21.045615   -14.178598
C     19.450956    14.334257   -10.919283
C     17.139992    20.812620    -8.175641
Ca    18.065188    18.073468   -17.762827
Ca    20.641824    17.145712    -7.209390
Ca    15.948415    18.000721   -11.886083
Ca    16.285114    20.139990   -15.120069
Ca    22.421629    15.095686    -9.865140
Ca    14.169318    20.051190    -9.229785
O     17.723131    16.673669   -15.802585
O     15.547396    20.227718   -12.782337
O     22.051126    17.315411   -10.756710
O     19.807119    25.068907   -11.043983
O     16.739910    17.920410   -14.215509
O     22.025795    13.688471    -7.913205
O     14.564443    21.457963   -11.182268
O     21.087843    18.559611    -9.158724
O     15.502395    16.586823    -9.936748
O     18.843874    26.310750    -9.444141
O     20.711967    19.642812   -15.412756
O     18.001557    15.175747    -9.243928
O     18.588681    19.970686    -9.851544
O     18.531894    19.571248   -15.909570
O     20.174518    15.684852    -9.091724
O     16.415720    19.461582   -10.003748
O     20.252826    21.460039   -13.542111
O     18.453662    13.791348   -11.455472
O     18.136576    21.355085    -7.640000
O     18.061366    21.365632   -13.996575
O     20.639120    14.254954   -11.291792
O     15.951118    20.891479    -7.803680
O     20.464220    17.403054   -13.441230
O     18.264911    22.407192   -11.563085
O     18.338812    18.046979   -11.706978
O     18.251426    17.099454    -7.388495
O     16.125018    23.899137   -10.495837
O     20.511005    16.825183   -12.994372
O     18.293038    22.976982   -12.020134
O     18.370695    17.775813   -11.437726
O     18.219543    17.370621    -7.657746
O     16.147888    24.225328   -10.697972
Ca    13.738019    23.687594   -10.545442
O     16.384798    25.256939    -8.195371
Ca    18.202174    20.127702   -21.018225
O     18.544230    21.527501   -22.978466
C     16.922828    22.544601   -19.232380
Ca    15.991778    25.814575   -19.677584
Ca    13.875005    25.741829   -13.800840
Ca    17.771584    23.764549   -22.333334
Ca    15.655079    23.675306   -16.443598
O     16.392796    23.587579   -18.781330
O     17.375750    22.357334   -20.381399
O     15.200283    25.894886   -17.348158
O     13.408299    24.244048   -15.654097
O     13.878827    22.449664   -17.567092
O     15.814470    19.916591   -21.067267
O     15.792305    19.589968   -20.865695
C     19.228322    16.853430   -20.544881
O     19.670476    16.668248   -21.707194
O     18.707232    17.910091   -20.107352
O     17.999934    12.954426   -18.303212
C     17.130665    15.605638   -13.742437
C     14.901153    22.467556   -13.327496
C     15.057273    17.221859   -18.728659
C     14.790348    18.259083   -17.624425
Ca    16.178012    14.359180   -10.655216
Ca    17.957817    12.309154   -13.310966
O     17.587314    14.528878   -14.202537
O     15.343307    22.282374   -14.489809
O     16.624031    15.773078   -12.604551
O     14.380062    23.524218   -12.889968
O     16.248155    16.856280   -18.858582
O     14.124869    17.184154   -13.297371
O     15.789014    18.673506   -16.987937
O     13.672764    18.568553   -11.085827
O     13.597554    18.579100   -17.442401
O     16.000408    14.616521   -16.887057
O     13.801099    19.620660   -15.008912
O     16.047193    14.038650   -16.440198
O     13.829226    20.190449   -15.465961
O     27.607677    29.246231   -17.685751
O     28.570955    28.001156   -19.284848
O     31.126904    26.989518   -12.534002
O     31.597432    25.195134   -14.446997
O     31.843474    19.929624   -10.177276
C     32.775879    19.967330   -15.608564
O     33.507619    21.418977   -13.867842
O     31.391370    21.314023    -7.965732
C     28.181784    26.618679    -7.286945
O     29.639591    25.215877    -8.521103
O     30.630543    22.316271   -20.707131
O     20.155849    29.745549    -9.259258
O     22.335923    29.817112    -8.762444
O     27.658088    15.645170    -7.064445
O     28.641310    14.398429    -8.651522
O     30.842107    14.487816   -14.528268
O     19.002929    20.618430    -4.891825
C     19.383167    18.289157    -4.420784
O     22.600388    24.141617    -4.194174
O     20.414930    23.678011    -4.357853
O     26.166731    19.529739   -24.152958
C     19.273340    30.996191   -14.375403
O     18.680873    29.928160   -12.315255
O     26.378295    11.701284   -17.974095
C     23.848255    14.394265   -22.500217
O     14.068082    16.784716   -19.355397
O     29.194577    29.157713   -15.002342
O     29.147792    29.735584   -15.449200
O     27.066718    29.767701    -9.663102
O     27.038591    29.197911    -9.206053
O     33.706981    18.243949   -18.038953
O     33.729850    18.570139   -18.241089
O     29.380811    17.702318    -5.979974
O     29.334026    18.280189    -6.426832
O     27.266436    23.620044    -4.815325
O     27.298319    23.348877    -4.546073
O     15.951113    28.317250   -10.404056
O     15.928948    27.990627   -10.202483
O     16.137051    23.017180    -6.223845
O     16.183836    22.439309    -5.776987
O     13.601380    25.768317   -19.856689
O     13.569497    26.039483   -20.125941
O     11.487301    25.530718   -13.849882
O     11.465136    25.204095   -13.648310
O     13.787614    14.312922   -10.834321
O     13.755731    14.584088   -11.103572
O     11.673239    20.230648    -9.669672
O     11.720024    19.652777    -9.222814
